experiments/21_JSA_experiments/solutions/imx8a/all/IN_5.json-ILP-SM-I.out.log
Using license file /home/benedond/gurobi.lic
Using gurobi.env file
Set parameter Threads to value 1
Academic license - for non-commercial use only
Changed value of parameter TimeLimit to 300.0
   Prev: inf  Min: 0.0  Max: inf  Default: inf
Gurobi Optimizer version 9.0.1 build v9.0.1rc0 (linux64)
Optimize a model with 1700 rows, 840 columns and 6478 nonzeros
Model fingerprint: 0x44800224
Variable types: 20 continuous, 820 integer (800 binary)
Coefficient statistics:
  Matrix range     [2e-01, 2e+03]
  Objective range  [1e-03, 3e-01]
  Bounds range     [1e+00, 1e+00]
  RHS range        [1e+00, 2e+03]

---------------------------------------------------------------------------
Multi-objectives: starting optimization with 1 objectives ... 
---------------------------------------------------------------------------
---------------------------------------------------------------------------

Multi-objectives: optimize objective 1 (min avg power cons) ...
---------------------------------------------------------------------------

Optimize a model with 1700 rows, 840 columns and 6478 nonzeros
Variable types: 20 continuous, 820 integer (800 binary)
Coefficient statistics:
  Matrix range     [2e-01, 2e+03]
  Objective range  [1e-03, 3e-01]
  Bounds range     [1e+00, 1e+00]
  RHS range        [1e+00, 2e+03]
Presolve removed 1094 rows and 541 columns
Presolve time: 0.05s
Presolved: 606 rows, 299 columns, 4371 nonzeros
Variable types: 15 continuous, 284 integer (269 binary)

Root relaxation: objective 1.508080e+00, 170 iterations, 0.00 seconds

    Nodes    |    Current Node    |     Objective Bounds      |     Work
 Expl Unexpl |  Obj  Depth IntInf | Incumbent    BestBd   Gap | It/Node Time

     0     0    1.50808    0   49          -    1.50808      -     -    0s
H    0     0                       4.6757210    1.50808  67.7%     -    0s
H    0     0                       4.0772791    1.50808  63.0%     -    0s
H    0     0                       4.0607209    1.50808  62.9%     -    0s
     0     0    1.69893    0   59    4.06072    1.69893  58.2%     -    0s
     0     0    1.70102    0   52    4.06072    1.70102  58.1%     -    0s
     0     0    1.89992    0   67    4.06072    1.89992  53.2%     -    0s
H    0     0                       3.7457093    1.89992  49.3%     -    0s
H    0     0                       3.6354652    1.89992  47.7%     -    0s
     0     0    1.91069    0   65    3.63547    1.91069  47.4%     -    0s
     0     0    1.99306    0   65    3.63547    1.99306  45.2%     -    0s
     0     0    2.01526    0   68    3.63547    2.01526  44.6%     -    0s
     0     0    2.01592    0   74    3.63547    2.01592  44.5%     -    0s
     0     0    2.01706    0   75    3.63547    2.01706  44.5%     -    0s
     0     0    2.01764    0   74    3.63547    2.01764  44.5%     -    0s
     0     0    2.07452    0   73    3.63547    2.07452  42.9%     -    0s
H    0     0                       3.6020117    2.07452  42.4%     -    0s
     0     0    2.08251    0   74    3.60201    2.08251  42.2%     -    0s
     0     0    2.08375    0   74    3.60201    2.08375  42.2%     -    0s
     0     0    2.08464    0   76    3.60201    2.08464  42.1%     -    0s
     0     0    2.08487    0   75    3.60201    2.08487  42.1%     -    0s
     0     0    2.08488    0   75    3.60201    2.08488  42.1%     -    0s
     0     0    2.10423    0   81    3.60201    2.10423  41.6%     -    0s
H    0     0                       3.5360814    2.10423  40.5%     -    0s
H    0     0                       3.4368140    2.10423  38.8%     -    0s
     0     0    2.12395    0   78    3.43681    2.12395  38.2%     -    0s
     0     0    2.12878    0   79    3.43681    2.12878  38.1%     -    0s
     0     0    2.12955    0   81    3.43681    2.12955  38.0%     -    0s
     0     0    2.13022    0   81    3.43681    2.13022  38.0%     -    0s
     0     0    2.13026    0   81    3.43681    2.13026  38.0%     -    0s
     0     0    2.13630    0   75    3.43681    2.13630  37.8%     -    0s
     0     0    2.13967    0   73    3.43681    2.13967  37.7%     -    0s
     0     0    2.14043    0   72    3.43681    2.14043  37.7%     -    0s
     0     0    2.14048    0   72    3.43681    2.14048  37.7%     -    0s
     0     0    2.14176    0   74    3.43681    2.14176  37.7%     -    0s
     0     0    2.14436    0   73    3.43681    2.14436  37.6%     -    0s
     0     0    2.14474    0   74    3.43681    2.14474  37.6%     -    0s
     0     0    2.14484    0   72    3.43681    2.14484  37.6%     -    0s
     0     0    2.14793    0   68    3.43681    2.14793  37.5%     -    0s
H    0     0                       3.3579884    2.14793  36.0%     -    0s
     0     0    2.14845    0   75    3.35799    2.14845  36.0%     -    0s
     0     0    2.14866    0   76    3.35799    2.14866  36.0%     -    0s
     0     0    2.14880    0   75    3.35799    2.14880  36.0%     -    0s
H    0     0                       3.3178139    2.14880  35.2%     -    0s
     0     0    2.14894    0   75    3.31781    2.14894  35.2%     -    0s
     0     0    2.14903    0   74    3.31781    2.14903  35.2%     -    0s
     0     0    2.14903    0   74    3.31781    2.14903  35.2%     -    0s
H    0     0                       3.1875000    2.14903  32.6%     -    0s
H    0     0                       3.1071163    2.14943  30.8%     -    0s
     0     2    2.14943    0   74    3.10712    2.14943  30.8%     -    0s
*  178    74              27       2.9692326    2.27736  23.3%  29.9    0s
H  827   204                       2.9378256    2.55020  13.2%  36.4    1s
H  994   237                       2.9327675    2.57620  12.2%  36.1    2s
* 1517   312              28       2.9292558    2.64406  9.74%  34.2    2s
  3344   288    2.81007   19   42    2.92926    2.79399  4.62%  32.5    5s

Cutting planes:
  Learned: 6
  Gomory: 1
  Cover: 126
  Implied bound: 122
  Clique: 5
  MIR: 91
  StrongCG: 10
  GUB cover: 27
  Inf proof: 2
  Zero half: 2
  RLT: 11
  Relax-and-lift: 155

Explored 4632 nodes (140433 simplex iterations) in 6.36 seconds
Thread count was 1 (of 4 available processors)

Solution count 10: 2.92926 2.93277 2.93783 ... 3.53608

Optimal solution found (tolerance 1.00e-04)
Best objective 2.929255793573e+00, best bound 2.929255793573e+00, gap 0.0000%

---------------------------------------------------------------------------
Multi-objectives: solved in 6.36 seconds, solution count 10

